; PUSH cw_5 CALLDATASIZE SWAP1 DUP1 DUP1 => CALLDATASIZE PUSH cw_5 PUSH cw_5 PUSH cw_5
(set-option :produce-proofs true)
; 
(set-info :status unknown)
(declare-fun storage_t ((_ BitVec 256) (_ BitVec 256) Int (_ BitVec 256)) (_ BitVec 256))
(declare-fun w_5 () (_ BitVec 256))
(declare-fun storage_s ((_ BitVec 256) (_ BitVec 256) Int (_ BitVec 256)) (_ BitVec 256))
(declare-fun exc_halt_t (Int) Bool)
(declare-fun exc_halt_s (Int) Bool)
(declare-fun stack_t ((_ BitVec 256) (_ BitVec 256) Int (_ BitVec 6)) (_ BitVec 256))
(declare-fun stack_s ((_ BitVec 256) (_ BitVec 256) Int (_ BitVec 6)) (_ BitVec 256))
(declare-fun sc_t (Int) (_ BitVec 6))
(declare-fun sc_s (Int) (_ BitVec 6))
(declare-fun used_gas_t ((_ BitVec 256) (_ BitVec 256) Int) Int)
(declare-fun used_gas_s ((_ BitVec 256) (_ BitVec 256) Int) Int)
(assert
 (exists ((x_CALLDATASIZE (_ BitVec 256)) )(let (($x3680 (forall ((w (_ BitVec 256)) )(let ((?x7536 (storage_t w_5 x_CALLDATASIZE 4 w)))
 (let ((?x7674 (storage_s w_5 x_CALLDATASIZE 5 w)))
 (= ?x7674 ?x7536))))
 ))
 (let (($x3723 (exc_halt_t 4)))
 (let (($x3979 (exc_halt_s 5)))
 (let (($x7567 (= $x3979 $x3723)))
 (let (($x4932 (forall ((n (_ BitVec 6)) )(let ((?x2723 (stack_t w_5 x_CALLDATASIZE 4 n)))
 (let ((?x2169 (stack_s w_5 x_CALLDATASIZE 5 n)))
 (let (($x7667 (= ?x2169 ?x2723)))
 (let ((?x3757 (sc_t 4)))
 (let (($x4910 (bvsle ?x3757 n)))
 (or $x4910 $x7667)))))))
 ))
 (let ((?x3757 (sc_t 4)))
 (let ((?x805 (sc_s 5)))
 (let (($x9143 (= ?x805 ?x3757)))
 (let ((?x2069 (used_gas_t w_5 x_CALLDATASIZE 0)))
 (let ((?x986 (used_gas_s w_5 x_CALLDATASIZE 0)))
 (let (($x1751 (= ?x986 ?x2069)))
 (let (($x1302 (forall ((w (_ BitVec 256)) )(let ((?x2477 (storage_t w_5 x_CALLDATASIZE 0 w)))
 (let ((?x1753 (storage_s w_5 x_CALLDATASIZE 0 w)))
 (= ?x1753 ?x2477))))
 ))
 (let (($x56 (exc_halt_t 0)))
 (let (($x57 (exc_halt_s 0)))
 (let (($x58 (= $x57 $x56)))
 (let (($x9494 (forall ((n (_ BitVec 6)) )(let ((?x63 (sc_t 0)))
 (let (($x5858 (bvsle ?x63 n)))
 (let ((?x6007 (stack_t w_5 x_CALLDATASIZE 0 n)))
 (let ((?x6005 (stack_s w_5 x_CALLDATASIZE 0 n)))
 (let (($x3017 (= ?x6005 ?x6007)))
 (or $x3017 $x5858)))))))
 ))
 (let ((?x63 (sc_t 0)))
 (let ((?x72 (sc_s 0)))
 (let (($x73 (= ?x72 ?x63)))
 (let (($x6869 (not (= ((_ extract 6 6) (bvadd (_ bv1 7) (concat (_ bv0 1) (sc_t 3)))) (_ bv0 1)))))
 (let (($x10336 (exc_halt_t 3)))
 (let (($x657 (forall ((w (_ BitVec 256)) )(let ((?x9281 (storage_t w_5 x_CALLDATASIZE 3 w)))
 (let ((?x7536 (storage_t w_5 x_CALLDATASIZE 4 w)))
 (= ?x7536 ?x9281))))
 ))
 (let (($x7073 (forall ((n (_ BitVec 6)) )(let ((?x2012 (sc_t 3)))
 (let (($x5921 (bvsle ?x2012 n)))
 (or (= (stack_t w_5 x_CALLDATASIZE 4 n) (stack_t w_5 x_CALLDATASIZE 3 n)) $x5921))))
 ))
 (let (($x4603 (= ?x3757 (bvadd (_ bv1 6) (sc_t 3)))))
 (let (($x2499 (= (used_gas_t w_5 x_CALLDATASIZE 4) (+ 3 (used_gas_t w_5 x_CALLDATASIZE 3)))))
 (let (($x5188 (not (= ((_ extract 6 6) (bvadd (_ bv1 7) (concat (_ bv0 1) (sc_t 2)))) (_ bv0 1)))))
 (let (($x903 (exc_halt_t 2)))
 (let (($x10875 (= $x10336 (or $x903 $x5188))))
 (let (($x9203 (forall ((w (_ BitVec 256)) )(let ((?x694 (storage_t w_5 x_CALLDATASIZE 2 w)))
 (let ((?x9281 (storage_t w_5 x_CALLDATASIZE 3 w)))
 (= ?x9281 ?x694))))
 ))
 (let (($x5671 (forall ((n (_ BitVec 6)) )(let ((?x4056 (sc_t 2)))
 (let (($x355 (bvsle ?x4056 n)))
 (or $x355 (= (stack_t w_5 x_CALLDATASIZE 3 n) (stack_t w_5 x_CALLDATASIZE 2 n))))))
 ))
 (let ((?x2012 (sc_t 3)))
 (let (($x5182 (= ?x2012 (bvadd (_ bv1 6) (sc_t 2)))))
 (let ((?x1183 (used_gas_t w_5 x_CALLDATASIZE 3)))
 (let (($x265 (not (= ((_ extract 6 6) (bvadd (_ bv1 7) (concat (_ bv0 1) (sc_t 1)))) (_ bv0 1)))))
 (let (($x1920 (exc_halt_t 1)))
 (let (($x4061 (= $x903 (or $x1920 $x265))))
 (let (($x2286 (forall ((w (_ BitVec 256)) )(let ((?x7627 (storage_t w_5 x_CALLDATASIZE 1 w)))
 (let ((?x694 (storage_t w_5 x_CALLDATASIZE 2 w)))
 (= ?x694 ?x7627))))
 ))
 (let (($x9476 (forall ((n (_ BitVec 6)) )(let ((?x4023 (sc_t 1)))
 (let (($x10889 (bvsle ?x4023 n)))
 (or (= (stack_t w_5 x_CALLDATASIZE 2 n) (stack_t w_5 x_CALLDATASIZE 1 n)) $x10889))))
 ))
 (let ((?x4056 (sc_t 2)))
 (let (($x8278 (= ?x4056 (bvadd (_ bv1 6) (sc_t 1)))))
 (let ((?x6755 (used_gas_t w_5 x_CALLDATASIZE 2)))
 (let (($x2670 (= $x1920 (or $x56 (not (= ((_ extract 6 6) (bvadd (_ bv1 7) (concat (_ bv0 1) ?x63))) (_ bv0 1)))))))
 (let (($x3037 (forall ((w (_ BitVec 256)) )(let ((?x2477 (storage_t w_5 x_CALLDATASIZE 0 w)))
 (let ((?x7627 (storage_t w_5 x_CALLDATASIZE 1 w)))
 (= ?x7627 ?x2477))))
 ))
 (let (($x7491 (forall ((n (_ BitVec 6)) )(let ((?x63 (sc_t 0)))
 (let (($x5858 (bvsle ?x63 n)))
 (or (= (stack_t w_5 x_CALLDATASIZE 1 n) (stack_t w_5 x_CALLDATASIZE 0 n)) $x5858))))
 ))
 (let ((?x4023 (sc_t 1)))
 (let (($x5939 (= ?x4023 (bvadd (_ bv1 6) ?x63))))
 (let (($x6756 (not (bvsle (_ bv0 6) (bvadd (_ bv63 6) (sc_s 4))))))
 (let (($x1413 (not (= ((_ extract 6 6) (bvadd (_ bv1 7) (concat (_ bv0 1) (sc_s 4)))) (_ bv0 1)))))
 (let (($x64 (exc_halt_s 4)))
 (let (($x2954 (forall ((w (_ BitVec 256)) )(let ((?x2514 (storage_s w_5 x_CALLDATASIZE 4 w)))
 (let ((?x7674 (storage_s w_5 x_CALLDATASIZE 5 w)))
 (= ?x7674 ?x2514))))
 ))
 (let (($x3351 (forall ((n (_ BitVec 6)) )(let ((?x4305 (sc_s 4)))
 (let ((?x10396 (bvadd (_ bv63 6) ?x4305)))
 (let (($x9672 (bvsle ?x10396 n)))
 (or (= (stack_s w_5 x_CALLDATASIZE 5 n) (stack_s w_5 x_CALLDATASIZE 4 n)) $x9672)))))
 ))
 (let (($x6252 (= ?x805 (bvadd (_ bv1 6) (sc_s 4)))))
 (let (($x7264 (= (used_gas_s w_5 x_CALLDATASIZE 5) (+ 3 (used_gas_s w_5 x_CALLDATASIZE 4)))))
 (let ((?x4305 (sc_s 4)))
 (let ((?x10396 (bvadd (_ bv63 6) ?x4305)))
 (let ((?x2143 (stack_s w_5 x_CALLDATASIZE 4 ?x10396)))
 (let (($x10592 (not (= ((_ extract 6 6) (bvadd (_ bv1 7) (concat (_ bv0 1) (sc_s 3)))) (_ bv0 1)))))
 (let (($x8234 (not (bvsle (_ bv0 6) (bvadd (_ bv63 6) (sc_s 3))))))
 (let (($x292 (exc_halt_s 3)))
 (let (($x5018 (= $x64 (or $x292 $x8234 $x10592))))
 (let (($x6971 (forall ((w (_ BitVec 256)) )(let ((?x8609 (storage_s w_5 x_CALLDATASIZE 3 w)))
 (let ((?x2514 (storage_s w_5 x_CALLDATASIZE 4 w)))
 (= ?x2514 ?x8609))))
 ))
 (let (($x4779 (forall ((n (_ BitVec 6)) )(let ((?x275 (sc_s 3)))
 (let ((?x10578 (bvadd (_ bv63 6) ?x275)))
 (let (($x9246 (bvsle ?x10578 n)))
 (or (= (stack_s w_5 x_CALLDATASIZE 4 n) (stack_s w_5 x_CALLDATASIZE 3 n)) $x9246)))))
 ))
 (let (($x10912 (= ?x4305 (bvadd (_ bv1 6) (sc_s 3)))))
 (let ((?x1772 (used_gas_s w_5 x_CALLDATASIZE 4)))
 (let ((?x275 (sc_s 3)))
 (let ((?x10578 (bvadd (_ bv63 6) ?x275)))
 (let ((?x10269 (stack_s w_5 x_CALLDATASIZE 3 ?x10578)))
 (let (($x6866 (= $x292 (or (exc_halt_s 2) (not (bvsle (_ bv0 6) (bvadd (_ bv62 6) (sc_s 2))))))))
 (let (($x2579 (forall ((w (_ BitVec 256)) )(let ((?x6728 (storage_s w_5 x_CALLDATASIZE 2 w)))
 (let ((?x8609 (storage_s w_5 x_CALLDATASIZE 3 w)))
 (= ?x8609 ?x6728))))
 ))
 (let (($x3329 (forall ((n (_ BitVec 6)) )(let ((?x218 (sc_s 2)))
 (let ((?x10744 (bvadd (_ bv62 6) ?x218)))
 (let (($x10749 (bvsle ?x10744 n)))
 (or (= (stack_s w_5 x_CALLDATASIZE 3 n) (stack_s w_5 x_CALLDATASIZE 2 n)) $x10749)))))
 ))
 (let ((?x218 (sc_s 2)))
 (let (($x10987 (= ?x275 ?x218)))
 (let ((?x2088 (used_gas_s w_5 x_CALLDATASIZE 3)))
 (let (($x9313 (= (stack_s w_5 x_CALLDATASIZE 3 (bvadd (_ bv62 6) ?x275)) (stack_s w_5 x_CALLDATASIZE 2 (bvadd (_ bv63 6) ?x218)))))
 (let (($x6375 (not (= ((_ extract 6 6) (bvadd (_ bv1 7) (concat (_ bv0 1) (sc_s 1)))) (_ bv0 1)))))
 (let (($x189 (exc_halt_s 1)))
 (let (($x247 (exc_halt_s 2)))
 (let (($x3676 (= $x247 (or $x189 $x6375))))
 (let (($x10270 (forall ((w (_ BitVec 256)) )(let ((?x899 (storage_s w_5 x_CALLDATASIZE 1 w)))
 (let ((?x6728 (storage_s w_5 x_CALLDATASIZE 2 w)))
 (= ?x6728 ?x899))))
 ))
 (let (($x5924 (forall ((n (_ BitVec 6)) )(let ((?x154 (sc_s 1)))
 (let (($x10983 (bvsle ?x154 n)))
 (or (= (stack_s w_5 x_CALLDATASIZE 2 n) (stack_s w_5 x_CALLDATASIZE 1 n)) $x10983))))
 ))
 (let (($x10982 (= ?x218 (bvadd (_ bv1 6) (sc_s 1)))))
 (let ((?x4299 (used_gas_s w_5 x_CALLDATASIZE 2)))
 (let (($x2046 (= $x189 (or $x57 (not (= ((_ extract 6 6) (bvadd (_ bv1 7) (concat (_ bv0 1) ?x72))) (_ bv0 1)))))))
 (let (($x8026 (forall ((w (_ BitVec 256)) )(let ((?x1753 (storage_s w_5 x_CALLDATASIZE 0 w)))
 (let ((?x899 (storage_s w_5 x_CALLDATASIZE 1 w)))
 (= ?x899 ?x1753))))
 ))
 (let (($x2993 (forall ((n (_ BitVec 6)) )(let ((?x72 (sc_s 0)))
 (let (($x10975 (bvsle ?x72 n)))
 (or (= (stack_s w_5 x_CALLDATASIZE 1 n) (stack_s w_5 x_CALLDATASIZE 0 n)) $x10975))))
 ))
 (let ((?x154 (sc_s 1)))
 (let (($x7560 (= ?x154 (bvadd (_ bv1 6) ?x72))))
 (let (($x6377 (forall ((w (_ BitVec 256)) )(let ((?x1753 (storage_s w_5 x_CALLDATASIZE 0 w)))
 (= ?x1753 (_ bv0 256))))
 ))
 (let (($x4858 (= ?x986 0)))
 (let (($x4937 (not $x57)))
 (let (($x136 (= ?x72 (_ bv0 6))))
 (and $x136 $x4937 $x4858 $x6377 (= (stack_s w_5 x_CALLDATASIZE 1 ?x72) w_5) (= (used_gas_s w_5 x_CALLDATASIZE 1) (+ 3 ?x986)) $x7560 $x2993 $x8026 $x2046 (= (stack_s w_5 x_CALLDATASIZE 2 ?x154) x_CALLDATASIZE) (= ?x4299 (+ 2 (used_gas_s w_5 x_CALLDATASIZE 1))) $x10982 $x5924 $x10270 $x3676 (= ?x10269 (stack_s w_5 x_CALLDATASIZE 2 (bvadd (_ bv62 6) ?x218))) $x9313 (= ?x2088 (+ 3 ?x4299)) $x10987 $x3329 $x2579 $x6866 (= ?x2143 ?x10269) (= (stack_s w_5 x_CALLDATASIZE 4 ?x10578) ?x10269) (= ?x1772 (+ 3 ?x2088)) $x10912 $x4779 $x6971 $x5018 (= (stack_s w_5 x_CALLDATASIZE 5 (bvadd (_ bv63 6) ?x805)) ?x2143) (= (stack_s w_5 x_CALLDATASIZE 5 ?x10396) ?x2143) $x7264 $x6252 $x3351 $x2954 (= $x3979 (or $x64 $x1413 $x6756)) (= (stack_t w_5 x_CALLDATASIZE 1 ?x63) x_CALLDATASIZE) (= (used_gas_t w_5 x_CALLDATASIZE 1) (+ 2 ?x2069)) $x5939 $x7491 $x3037 $x2670 (= (stack_t w_5 x_CALLDATASIZE 2 ?x4023) w_5) (= ?x6755 (+ 3 (used_gas_t w_5 x_CALLDATASIZE 1))) $x8278 $x9476 $x2286 $x4061 (= (stack_t w_5 x_CALLDATASIZE 3 ?x4056) w_5) (= ?x1183 (+ 3 ?x6755)) $x5182 $x5671 $x9203 $x10875 (= (stack_t w_5 x_CALLDATASIZE 4 ?x2012) w_5) $x2499 $x4603 $x7073 $x657 (= $x3723 (or $x10336 $x6869)) $x73 $x9494 $x58 $x1302 $x1751 (not (and $x9143 $x4932 $x7567 $x3680)))))))))))))))))))))))))))))))))))))))))))))))))))))))))))))))))))))))))))))))))))))))))))))))
 )
(check-sat)
(get-proof)
